<?xml version="1.0" encoding="UTF-8"?><osil xmlns="os.optimizationservices.org"   xmlns:xsi="http://www.w3.org/2001/XMLSchema-instance" xsi:schemaLocation="os.optimizationservices.org http://www.optimizationservices.org/schemas/2.0/OSiL.xsd" ><instanceHeader><name>ex5_4_2</name></instanceHeader><instanceData><variables numberOfVariables="8"><var name="x1" lb="100" ub="10000"/><var name="x2" lb="1000" ub="10000"/><var name="x3" lb="1000" ub="10000"/><var name="x4" lb="10" ub="1000"/><var name="x5" lb="10" ub="1000"/><var name="x6" lb="10" ub="1000"/><var name="x7" lb="10" ub="1000"/><var name="x8" lb="10" ub="1000"/></variables><objectives numberOfObjectives="1"><obj maxOrMin="min" name="defObj_objvar" numberOfObjCoef="3"><coef idx="0">1</coef><coef idx="1">1</coef><coef idx="2">1</coef></obj></objectives><constraints numberOfConstraints="6"><con name="e2" ub="400"/><con name="e3" ub="300"/><con name="e4" ub="100"/><con name="e5" ub="83333.3333333333"/><con name="e6" ub="0"/><con name="e7" ub="-1.25e6"/></constraints><linearConstraintCoefficients numberOfValues="12"><start><el>0</el><el>2</el><el mult="4" incr="2">5</el><el>12</el></start><colIdx><el>3</el><el>5</el><el mult="2" incr="1">3</el><el>6</el><el>4</el><el>7</el><el>0</el><el>3</el><el mult="2" incr="1">3</el><el>4</el></colIdx><value><el mult="2">1</el><el>-1</el><el mult="2">1</el><el>-1</el><el mult="2">1</el><el>833.333333333333</el><el>-1.25e3</el><el>1.25e3</el><el>-2.5e3</el></value></linearConstraintCoefficients><quadraticCoefficients  numberOfQuadraticTerms="5" ><qTerm  idx="3"  idxOne="0"  idxTwo="5"  coef="-1"/><qTerm  idx="4"  idxOne="1"  idxTwo="3"  coef="1"/><qTerm  idx="4"  idxOne="1"  idxTwo="6"  coef="-1"/><qTerm  idx="5"  idxOne="2"  idxTwo="4"  coef="1"/><qTerm  idx="5"  idxOne="2"  idxTwo="7"  coef="-1"/></quadraticCoefficients></instanceData></osil>
